!File created by the GAMESS Input Deck Generator Plugin for Avogadro
 $BASIS GBASIS=STO NGAUSS=3 $END
 $CONTRL SCFTYP=RHF RUNTYP=IRC $END
 $STATPT HESS=read ihrep=5 $END
 $irc npoint=100 saddle=.t. tsengy=.t. forwrd=.f. opttol=0.0005 stride=0.1 $end $FORCE nvib=2 $END

 $DATA 
Title
C1
N     7.0    -7.31053638     2.77415633    -0.23082681
C     6.0    -5.83371973     2.79692554    -0.27110875
Cl    17.0    -5.11927223     4.03929234     0.75627595
H     1.0    -5.33167696     2.09832740    -0.88344425
H     1.0    -7.74050570     2.58165598     0.70704991
H     1.0    -7.63506746     2.01039076    -0.85355884
H     1.0    -7.79413128     3.64312291    -0.56716228
 $END

 $HESS
ENERGY IS     -547.8517861053 E(NUC) IS      102.2122145588
 1  1 6.07637611E-01-8.62566710E-03 2.28066450E-03-2.00731027E-01 1.49636370E-02
 1  2 1.94749910E-02-1.94653597E-02-4.71965294E-04 1.96350737E-05-3.00155471E-02
 1  3-8.08978105E-03-6.66172149E-03-1.13842459E-01-2.08510313E-02 1.09317821E-01
 1  4-1.14097396E-01-9.61438499E-02-7.87815061E-02-1.29485489E-01 1.19218189E-01
 1  5-4.56500616E-02
 2  1-8.62566710E-03 9.22137416E-01 6.39324400E-02-9.83594367E-04-7.41385945E-02
 2  2-4.73021935E-02-3.20118444E-02-1.60459130E-02-2.49542449E-03 2.26651719E-02
 2  3-5.48303530E-03 1.67814621E-02-2.96641103E-02-1.08411249E-01 6.68910537E-02
 2  4-1.17442927E-01-3.42027468E-01-2.09420364E-01 1.66063453E-01-3.76031347E-01
 2  5 1.11612970E-01
 3  1 2.28066450E-03 6.39324400E-02 9.01366693E-01 6.87494048E-03-4.80387891E-02
 3  2-5.94979435E-02-2.68023778E-02-3.77582615E-03-1.35770342E-02 1.93916428E-02
 3  3 1.81125860E-02-1.18722229E-02 1.58055327E-01 7.02729299E-02-4.22572754E-01
 3  4-9.65875429E-02-2.10321209E-01-2.55885611E-01-6.32128618E-02 1.09817978E-01
 3  5-1.37961183E-01
 4  1-2.00731027E-01-9.83594367E-04 6.87494048E-03 5.13809992E-01-8.20283695E-02
 4  2-9.44693117E-02-7.51797460E-02-7.85681329E-02-6.25617695E-02-1.48240418E-01
 4  3 1.48702297E-01 1.34820833E-01-3.97390616E-02-3.64643917E-03 2.18459704E-02
 4  4-8.03991524E-03-2.02783883E-03-1.58392137E-03-4.18798542E-02 1.85523724E-02
 4  5-4.92663333E-03
 5  1 1.49636370E-02-7.41385945E-02-4.80387891E-02-8.20283695E-02 4.10256662E-01
 5  2 4.59095594E-01-7.70103396E-02-1.53218249E-01-1.55575387E-01 1.36865968E-01
 5  3-2.07849983E-01-2.44388982E-01 1.21670694E-02 8.17286799E-03-5.76234792E-03
 5  4-2.79455955E-02-3.46430992E-04 3.20969026E-03 2.29872750E-02 1.71237486E-02
 5  5-8.54020019E-03
 6  1 1.94749910E-02-4.73021935E-02-5.94979435E-02-9.44693117E-02 4.59095594E-01
 6  2 2.66504542E-01-6.11671401E-02-1.55362281E-01-9.63458028E-02 1.24851600E-01
 6  3-2.45009702E-01-1.38537727E-01 2.42885093E-02-5.89527864E-03 1.75213824E-02
 6  4-2.33544347E-02 2.11443110E-03-1.83087704E-04 1.03764441E-02-7.64096176E-03
 6  5 1.05387024E-02
 7  1-1.94653597E-02-3.20118444E-02-2.68023778E-02-7.51797460E-02-7.70103396E-02
 7  2-6.11671401E-02 9.10938094E-02 1.00618158E-01 8.15654252E-02 4.53736470E-03
 7  3 5.63333539E-03 4.00013182E-03 2.60306885E-03 1.37296799E-03 1.65653042E-04
 7  4-6.11748603E-03 9.40550496E-04 1.04977752E-03 2.52861432E-03 4.57177493E-04
 7  5 1.18857888E-03
 8  1-4.71965294E-04-1.60459130E-02-3.77582615E-03-7.85681329E-02-1.53218249E-01
 8  2-1.55362281E-01 1.00618158E-01 1.78020706E-01 1.53381365E-01-1.82183318E-02
 8  3-1.22116256E-02 3.96380533E-03-1.62200029E-03-4.50852344E-05 8.41827799E-04
 8  4-1.01370651E-03 2.07792757E-03 3.08859446E-04-7.23884601E-04 1.42230488E-03
 8  5 6.42400538E-04
 9  1 1.96350737E-05-2.49542449E-03-1.35770342E-02-6.25617695E-02-1.55575387E-01
 9  2-9.63458028E-02 8.15654252E-02 1.53381365E-01 1.19853450E-01-1.62752322E-02
 9  3 3.02325371E-03-1.28143398E-02-5.88599973E-04 8.20996777E-04 1.20792379E-03
 9  4-3.74795575E-04 3.19400489E-04 1.94464933E-03-1.78500004E-03 5.25778893E-04
 9  5-2.68713999E-04
10  1-3.00155471E-02 2.26651719E-02 1.93916428E-02-1.48240418E-01 1.36865968E-01
10  2 1.24851600E-01 4.53736470E-03-1.82183318E-02-1.62752322E-02 1.73561192E-01
10  3-1.41732222E-01-1.28205779E-01-1.06255535E-03 8.08442608E-04-2.83143087E-03
10  4 2.71556994E-03 2.17845635E-03 1.74210989E-03-1.49557887E-03-2.56751191E-03
10  5 1.32709560E-03
11  1-8.08978105E-03-5.48303530E-03 1.81125860E-02 1.48702297E-01-2.07849983E-01
11  2-2.45009702E-01 5.63333539E-03-1.22116256E-02 3.02325371E-03-1.41732222E-01
11  3 2.25227145E-01 2.20846789E-01-1.00829640E-02-2.93004445E-04 2.09347933E-03
11  4 6.46841974E-04 1.41242686E-03 5.63797844E-04 4.92234245E-03-8.02039587E-04
11  5 3.70120343E-04
12  1-6.66172149E-03 1.67814621E-02-1.18722229E-02 1.34820833E-01-2.44388982E-01
12  2-1.38537727E-01 4.00013182E-03 3.96380533E-03-1.28143398E-02-1.28205779E-01
12  3 2.20846789E-01 1.63818940E-01 6.66201485E-03 4.43969910E-04-1.37442027E-03
12  4 4.44371327E-04 5.01032007E-04 1.08923417E-03-1.10598730E-02 1.85226512E-03
12  5-3.09787537E-04
13  1-1.13842459E-01-2.96641103E-02 1.58055327E-01-3.97390616E-02 1.21670694E-02
13  2 2.42885093E-02 2.60306885E-03-1.62200029E-03-5.88599973E-04-1.06255535E-03
13  3-1.00829640E-02 6.66201485E-03 1.37686939E-01 2.14725538E-02-1.49018066E-01
13  4 4.31089472E-03 3.55327396E-03-1.91429177E-02 1.00430869E-02 4.17621166E-03
13  5-2.02562589E-02
14  1-2.08510313E-02-1.08411249E-01 7.02729299E-02-3.64643917E-03 8.17286799E-03
14  2-5.89527864E-03 1.37296799E-03-4.50852344E-05 8.20996777E-04 8.08442608E-04
14  3-2.93004445E-04 4.43969910E-04 2.14725538E-02 9.45264134E-02-7.60665159E-02
14  4 1.71350707E-02 1.18223864E-02-3.59245014E-02-1.62915823E-02-5.77231306E-03
14  5 4.63485076E-02
15  1 1.09317821E-01 6.68910537E-02-4.22572754E-01 2.18459704E-02-5.76234792E-03
15  2 1.75213824E-02 1.65653042E-04 8.41827799E-04 1.20792379E-03-2.83143087E-03
15  3 2.09347933E-03-1.37442027E-03-1.49018066E-01-7.60665159E-02 4.35881995E-01
15  4 1.38629650E-02 1.33523340E-02-1.72547815E-02 6.65705088E-03-1.34996117E-03
15  5-1.34092834E-02
16  1-1.14097396E-01-1.17442927E-01-9.65875429E-02-8.03991524E-03-2.79455955E-02
16  2-2.33544347E-02-6.11748603E-03-1.01370651E-03-3.74795575E-04 2.71556994E-03
16  3 6.46841974E-04 4.44371327E-04 4.31089472E-03 1.71350707E-02 1.38629650E-02
16  4 1.15845194E-01 1.10000476E-01 9.01150041E-02 5.38295609E-03 1.86197889E-02
16  5 1.58944006E-02
17  1-9.61438499E-02-3.42027468E-01-2.10321209E-01-2.02783883E-03-3.46430992E-04
17  2 2.11443110E-03 9.40550496E-04 2.07792757E-03 3.19400489E-04 2.17845635E-03
17  3 1.41242686E-03 5.01032007E-04 3.55327396E-03 1.18223864E-02 1.33523340E-02
17  4 1.10000476E-01 3.47599977E-01 2.22574562E-01-1.85011402E-02-2.05386723E-02
17  5-2.85405448E-02
18  1-7.87815061E-02-2.09420364E-01-2.55885611E-01-1.58392137E-03 3.20969026E-03
18  2-1.83087704E-04 1.04977752E-03 3.08859446E-04 1.94464933E-03 1.74210989E-03
18  3 5.63797844E-04 1.08923417E-03-1.91429177E-02-3.59245014E-02-1.72547815E-02
18  4 9.01150041E-02 2.22574562E-01 2.56499633E-01 6.60140630E-03 1.86879691E-02
18  5 1.37900873E-02
19  1-1.29485489E-01 1.66063453E-01-6.32128618E-02-4.18798542E-02 2.29872750E-02
19  2 1.03764441E-02 2.52861432E-03-7.23884601E-04-1.78500004E-03-1.49557887E-03
19  3 4.92234245E-03-1.10598730E-02 1.00430869E-02-1.62915823E-02 6.65705088E-03
19  4 5.38295609E-03-1.85011402E-02 6.60140630E-03 1.54905950E-01-1.58456250E-01
19  5 5.24228709E-02
20  1 1.19218189E-01-3.76031347E-01 1.09817978E-01 1.85523724E-02 1.71237486E-02
20  2-7.64096176E-03 4.57177493E-04 1.42230488E-03 5.25778893E-04-2.56751191E-03
20  3-8.02039587E-04 1.85226512E-03 4.17621166E-03-5.77231306E-03-1.34996117E-03
20  4 1.86197889E-02-2.05386723E-02 1.86879691E-02-1.58456250E-01 3.84598375E-01
20  5-1.21893179E-01
21  1-4.56500616E-02 1.11612970E-01-1.37961183E-01-4.92663333E-03-8.54020019E-03
21  2 1.05387024E-02 1.18857888E-03 6.42400538E-04-2.68713999E-04 1.32709560E-03
21  3 3.70120343E-04-3.09787537E-04-2.02562589E-02 4.63485076E-02-1.34092834E-02
21  4 1.58944006E-02-2.85405448E-02 1.37900873E-02 5.24228709E-02-1.21893179E-01
21  5 1.27620175E-01
 $END